; DUP1 PUSH cw_4 DUP1 SWAP2 POP => PUSH cw_4 PUSH cw_4
(set-option :produce-proofs true)
; 
(set-info :status unknown)
(declare-fun storage_t ((_ BitVec 256) (_ BitVec 256) Int (_ BitVec 256)) (_ BitVec 256))
(declare-fun w_4 () (_ BitVec 256))
(declare-fun storage_s ((_ BitVec 256) (_ BitVec 256) Int (_ BitVec 256)) (_ BitVec 256))
(declare-fun exc_halt_t (Int) Bool)
(declare-fun exc_halt_s (Int) Bool)
(declare-fun stack_t ((_ BitVec 256) (_ BitVec 256) Int (_ BitVec 6)) (_ BitVec 256))
(declare-fun stack_s ((_ BitVec 256) (_ BitVec 256) Int (_ BitVec 6)) (_ BitVec 256))
(declare-fun sc_t (Int) (_ BitVec 6))
(declare-fun sc_s (Int) (_ BitVec 6))
(declare-fun used_gas_t ((_ BitVec 256) (_ BitVec 256) Int) Int)
(declare-fun used_gas_s ((_ BitVec 256) (_ BitVec 256) Int) Int)
(assert
 (exists ((x_0 (_ BitVec 256)) )(let (($x3136 (forall ((w (_ BitVec 256)) )(let ((?x3848 (storage_t x_0 w_4 2 w)))
 (let ((?x202 (storage_s x_0 w_4 5 w)))
 (= ?x202 ?x3848))))
 ))
 (let (($x7890 (exc_halt_t 2)))
 (let (($x11317 (exc_halt_s 5)))
 (let (($x4114 (= $x11317 $x7890)))
 (let (($x411 (forall ((n (_ BitVec 6)) )(let ((?x1793 (stack_t x_0 w_4 2 n)))
 (let ((?x1193 (stack_s x_0 w_4 5 n)))
 (let (($x7395 (= ?x1193 ?x1793)))
 (let ((?x2714 (sc_t 2)))
 (let (($x4079 (bvsle ?x2714 n)))
 (or $x4079 $x7395)))))))
 ))
 (let ((?x2714 (sc_t 2)))
 (let ((?x4319 (sc_s 5)))
 (let (($x1914 (= ?x4319 ?x2714)))
 (let ((?x9577 (used_gas_t x_0 w_4 0)))
 (let ((?x9579 (used_gas_s x_0 w_4 0)))
 (let (($x11553 (= ?x9579 ?x9577)))
 (let (($x2104 (forall ((w (_ BitVec 256)) )(let ((?x4452 (storage_t x_0 w_4 0 w)))
 (let ((?x5159 (storage_s x_0 w_4 0 w)))
 (= ?x5159 ?x4452))))
 ))
 (let (($x56 (exc_halt_t 0)))
 (let (($x57 (exc_halt_s 0)))
 (let (($x58 (= $x57 $x56)))
 (let (($x1446 (forall ((n (_ BitVec 6)) )(let ((?x63 (sc_t 0)))
 (let (($x8381 (bvsle ?x63 n)))
 (let ((?x7632 (stack_t x_0 w_4 0 n)))
 (let ((?x3006 (stack_s x_0 w_4 0 n)))
 (let (($x5542 (= ?x3006 ?x7632)))
 (or $x5542 $x8381)))))))
 ))
 (let ((?x63 (sc_t 0)))
 (let ((?x72 (sc_s 0)))
 (let (($x73 (= ?x72 ?x63)))
 (let (($x1144 (not (= ((_ extract 6 6) (bvadd (_ bv1 7) (concat (_ bv0 1) (sc_t 1)))) (_ bv0 1)))))
 (let (($x8377 (exc_halt_t 1)))
 (let (($x6949 (= $x7890 (or $x8377 $x1144))))
 (let (($x1206 (forall ((w (_ BitVec 256)) )(let ((?x3671 (storage_t x_0 w_4 1 w)))
 (let ((?x3848 (storage_t x_0 w_4 2 w)))
 (= ?x3848 ?x3671))))
 ))
 (let (($x10667 (forall ((n (_ BitVec 6)) )(let ((?x7154 (sc_t 1)))
 (let (($x3297 (bvsle ?x7154 n)))
 (or (= (stack_t x_0 w_4 2 n) (stack_t x_0 w_4 1 n)) $x3297))))
 ))
 (let (($x6935 (= ?x2714 (bvadd (_ bv1 6) (sc_t 1)))))
 (let (($x10997 (= (used_gas_t x_0 w_4 2) (+ 3 (used_gas_t x_0 w_4 1)))))
 (let (($x9770 (= $x8377 (or $x56 (not (= ((_ extract 6 6) (bvadd (_ bv1 7) (concat (_ bv0 1) ?x63))) (_ bv0 1)))))))
 (let (($x7348 (forall ((w (_ BitVec 256)) )(let ((?x4452 (storage_t x_0 w_4 0 w)))
 (let ((?x3671 (storage_t x_0 w_4 1 w)))
 (= ?x3671 ?x4452))))
 ))
 (let (($x1379 (forall ((n (_ BitVec 6)) )(let ((?x63 (sc_t 0)))
 (let (($x8381 (bvsle ?x63 n)))
 (or (= (stack_t x_0 w_4 1 n) (stack_t x_0 w_4 0 n)) $x8381))))
 ))
 (let ((?x7154 (sc_t 1)))
 (let (($x262 (= ?x7154 (bvadd (_ bv1 6) ?x63))))
 (let (($x9476 (= $x11317 (or (exc_halt_s 4) (not (bvsle (_ bv0 6) (bvadd (_ bv63 6) (sc_s 4))))))))
 (let (($x8405 (forall ((w (_ BitVec 256)) )(let ((?x6992 (storage_s x_0 w_4 4 w)))
 (let ((?x202 (storage_s x_0 w_4 5 w)))
 (= ?x202 ?x6992))))
 ))
 (let (($x9202 (forall ((n (_ BitVec 6)) )(let ((?x4305 (sc_s 4)))
 (let ((?x5445 (bvadd (_ bv63 6) ?x4305)))
 (let (($x10725 (bvsle ?x5445 n)))
 (or (= (stack_s x_0 w_4 5 n) (stack_s x_0 w_4 4 n)) $x10725)))))
 ))
 (let ((?x4305 (sc_s 4)))
 (let ((?x5445 (bvadd (_ bv63 6) ?x4305)))
 (let (($x4629 (= ?x4319 ?x5445)))
 (let (($x9759 (= (used_gas_s x_0 w_4 5) (+ 2 (used_gas_s x_0 w_4 4)))))
 (let (($x7172 (exc_halt_s 4)))
 (let (($x8206 (= $x7172 (or (exc_halt_s 3) (not (bvsle (_ bv0 6) (bvadd (_ bv61 6) (sc_s 3))))))))
 (let (($x381 (forall ((w (_ BitVec 256)) )(let ((?x3979 (storage_s x_0 w_4 3 w)))
 (let ((?x6992 (storage_s x_0 w_4 4 w)))
 (= ?x6992 ?x3979))))
 ))
 (let (($x4328 (forall ((n (_ BitVec 6)) )(or (bvsle (bvadd (_ bv61 6) (sc_s 3)) n) (= (stack_s x_0 w_4 4 n) (stack_s x_0 w_4 3 n))))
 ))
 (let ((?x275 (sc_s 3)))
 (let (($x8517 (= ?x4305 ?x275)))
 (let ((?x6286 (used_gas_s x_0 w_4 4)))
 (let (($x2268 (= (stack_s x_0 w_4 4 (bvadd (_ bv62 6) ?x4305)) (stack_s x_0 w_4 3 (bvadd (_ bv62 6) ?x275)))))
 (let ((?x10091 (bvadd (_ bv63 6) ?x275)))
 (let ((?x7129 (stack_s x_0 w_4 3 ?x10091)))
 (let (($x7072 (= (stack_s x_0 w_4 4 ?x5445) (stack_s x_0 w_4 3 (bvadd (_ bv61 6) ?x275)))))
 (let (($x5208 (not (= ((_ extract 6 6) (bvadd (_ bv1 7) (concat (_ bv0 1) (sc_s 2)))) (_ bv0 1)))))
 (let (($x247 (exc_halt_s 2)))
 (let (($x292 (exc_halt_s 3)))
 (let (($x1005 (forall ((w (_ BitVec 256)) )(let ((?x3723 (storage_s x_0 w_4 2 w)))
 (let ((?x3979 (storage_s x_0 w_4 3 w)))
 (= ?x3979 ?x3723))))
 ))
 (let (($x9717 (forall ((n (_ BitVec 6)) )(or (bvsle (bvadd (_ bv63 6) (sc_s 2)) n) (= (stack_s x_0 w_4 3 n) (stack_s x_0 w_4 2 n))))
 ))
 (let (($x5654 (= ?x275 (bvadd (_ bv1 6) (sc_s 2)))))
 (let ((?x8524 (used_gas_s x_0 w_4 3)))
 (let ((?x218 (sc_s 2)))
 (let ((?x7971 (bvadd (_ bv63 6) ?x218)))
 (let ((?x7127 (stack_s x_0 w_4 2 ?x7971)))
 (let (($x2786 (not (= ((_ extract 6 6) (bvadd (_ bv1 7) (concat (_ bv0 1) (sc_s 1)))) (_ bv0 1)))))
 (let (($x189 (exc_halt_s 1)))
 (let (($x9126 (= $x247 (or $x189 $x2786))))
 (let (($x5049 (forall ((w (_ BitVec 256)) )(let ((?x3930 (storage_s x_0 w_4 1 w)))
 (let ((?x3723 (storage_s x_0 w_4 2 w)))
 (= ?x3723 ?x3930))))
 ))
 (let (($x4998 (forall ((n (_ BitVec 6)) )(let ((?x154 (sc_s 1)))
 (let (($x7280 (bvsle ?x154 n)))
 (or $x7280 (= (stack_s x_0 w_4 2 n) (stack_s x_0 w_4 1 n))))))
 ))
 (let (($x7269 (= ?x218 (bvadd (_ bv1 6) (sc_s 1)))))
 (let ((?x4686 (used_gas_s x_0 w_4 2)))
 (let (($x7719 (not (= ((_ extract 6 6) (bvadd (_ bv1 7) (concat (_ bv0 1) ?x72))) (_ bv0 1)))))
 (let (($x11169 (= $x189 (or $x57 (not (bvsle (_ bv0 6) (bvadd (_ bv63 6) ?x72))) $x7719))))
 (let (($x8266 (forall ((w (_ BitVec 256)) )(let ((?x5159 (storage_s x_0 w_4 0 w)))
 (let ((?x3930 (storage_s x_0 w_4 1 w)))
 (= ?x3930 ?x5159))))
 ))
 (let (($x6547 (forall ((n (_ BitVec 6)) )(let ((?x72 (sc_s 0)))
 (let ((?x2326 (bvadd (_ bv63 6) ?x72)))
 (let (($x3783 (bvsle ?x2326 n)))
 (or $x3783 (= (stack_s x_0 w_4 1 n) (stack_s x_0 w_4 0 n)))))))
 ))
 (let ((?x154 (sc_s 1)))
 (let (($x8600 (= ?x154 (bvadd (_ bv1 6) ?x72))))
 (let ((?x2326 (bvadd (_ bv63 6) ?x72)))
 (let ((?x9478 (stack_s x_0 w_4 0 ?x2326)))
 (let (($x3713 (forall ((w (_ BitVec 256)) )(let ((?x5159 (storage_s x_0 w_4 0 w)))
 (= ?x5159 (_ bv0 256))))
 ))
 (let (($x8105 (= ?x9579 0)))
 (let (($x4855 (not $x57)))
 (let (($x9006 (= (stack_s x_0 w_4 0 (_ bv0 6)) x_0)))
 (let (($x7315 (= ?x72 (_ bv1 6))))
 (and $x7315 $x9006 $x4855 $x8105 $x3713 (= (stack_s x_0 w_4 1 (bvadd (_ bv63 6) ?x154)) ?x9478) (= (stack_s x_0 w_4 1 ?x2326) ?x9478) (= (used_gas_s x_0 w_4 1) (+ 3 ?x9579)) $x8600 $x6547 $x8266 $x11169 (= (stack_s x_0 w_4 2 ?x154) w_4) (= ?x4686 (+ 3 (used_gas_s x_0 w_4 1))) $x7269 $x4998 $x5049 $x9126 (= ?x7129 ?x7127) (= (stack_s x_0 w_4 3 ?x7971) ?x7127) (= ?x8524 (+ 3 ?x4686)) $x5654 $x9717 $x1005 (= $x292 (or $x247 (not (bvsle (_ bv0 6) ?x7971)) $x5208)) $x7072 (= (stack_s x_0 w_4 4 (bvadd (_ bv61 6) ?x4305)) ?x7129) $x2268 (= ?x6286 (+ 3 ?x8524)) $x8517 $x4328 $x381 $x8206 $x9759 $x4629 $x9202 $x8405 $x9476 (= (stack_t x_0 w_4 1 ?x63) w_4) (= (used_gas_t x_0 w_4 1) (+ 3 ?x9577)) $x262 $x1379 $x7348 $x9770 (= (stack_t x_0 w_4 2 ?x7154) w_4) $x10997 $x6935 $x10667 $x1206 $x6949 $x73 $x1446 $x58 $x2104 $x11553 (not (and $x1914 $x411 $x4114 $x3136)))))))))))))))))))))))))))))))))))))))))))))))))))))))))))))))))))))))))))))))))))
 )
(check-sat)
(get-proof)
